NAME: pr1002.tour
COMMENT: Best tour for pr1002.tsp (266389.0)
TYPE: TOUR
DIMENSION: 1002
TOUR_SECTION
624
623
621
622
649
650
651
648
645
646
647
652
654
653
644
643
642
659
658
657
655
656
662
661
660
356
355
357
358
359
352
353
354
348
347
346
349
350
351
345
344
343
341
342
338
339
340
337
336
335
398
397
396
400
401
399
292
291
290
289
296
295
293
294
321
322
323
320
317
318
319
316
325
324
326
315
314
331
330
329
327
328
334
333
332
28
27
29
30
31
26
20
19
18
21
22
23
25
24
32
33
34
35
36
37
38
39
40
50
41
42
43
44
45
313
312
311
310
309
308
307
306
305
991
297
298
300
299
284
285
286
287
288
404
403
402
408
409
411
412
413
414
415
417
416
410
407
406
405
421
422
423
420
418
419
427
426
425
424
461
462
463
464
466
465
460
459
458
457
456
455
453
452
451
450
448
449
585
586
587
581
582
583
584
454
475
473
474
476
472
471
477
478
479
480
470
469
468
467
273
274
275
276
277
278
279
280
281
282
283
301
302
303
304
113
111
110
112
114
115
116
118
117
119
106
105
104
103
994
107
108
109
46
47
48
49
84
83
82
88
89
86
85
87
90
92
91
99
98
97
96
95
94
93
77
78
79
80
81
52
51
53
57
55
54
73
71
70
69
68
72
56
67
66
58
60
59
65
61
62
64
63
17
12
11
13
16
15
14
10
9
8
7
6
4
3
5
2
1
74
75
76
136
135
134
133
100
101
102
127
128
129
130
131
132
137
138
139
140
141
142
143
144
148
146
145
147
126
125
124
123
122
120
121
257
258
259
256
255
254
253
249
250
247
248
260
270
272
271
269
268
267
229
228
227
226
225
224
223
222
221
220
219
218
191
190
237
236
235
234
233
232
230
231
263
264
265
266
262
261
246
245
244
243
242
241
240
238
239
188
189
192
193
194
197
199
200
198
201
202
196
195
187
186
251
252
995
150
149
151
152
153
154
157
156
164
155
165
166
169
168
167
163
162
158
159
185
184
160
161
172
171
170
173
174
175
176
177
178
179
180
181
183
182
996
203
204
206
205
207
208
209
210
211
212
217
216
215
214
213
498
499
500
501
502
503
504
505
506
507
508
509
999
510
511
512
513
485
484
492
491
490
486
487
488
489
495
496
497
494
493
483
482
481
998
580
579
514
515
523
524
530
531
532
534
533
535
538
537
536
528
527
526
529
525
522
516
517
521
520
519
518
567
566
568
569
570
571
572
574
573
575
578
577
576
590
589
588
598
599
597
596
595
594
593
592
591
559
560
558
557
556
555
554
553
552
551
550
561
562
563
565
564
549
548
547
546
545
540
539
541
544
543
542
826
827
828
817
816
815
841
840
839
838
837
836
835
830
829
832
831
834
833
1002
859
860
862
861
863
864
865
866
867
868
873
872
869
871
870
876
875
874
892
893
847
846
848
849
850
853
854
855
856
857
858
852
851
843
844
845
895
894
896
898
897
842
813
814
818
819
823
824
825
822
821
820
812
811
810
809
808
807
805
806
1001
908
907
899
900
902
901
903
906
905
904
916
917
918
919
920
887
886
888
889
891
890
877
878
879
880
881
882
883
884
885
921
922
923
924
925
927
926
928
929
930
931
932
933
934
935
936
937
938
939
957
958
960
959
770
771
772
774
773
775
762
761
760
780
779
778
776
777
913
914
915
909
910
911
912
782
781
783
784
785
786
787
801
802
803
804
800
799
798
797
796
795
601
600
602
603
604
605
606
607
608
609
610
611
629
630
631
632
441
439
438
440
442
443
444
445
447
446
434
433
432
431
430
428
429
997
435
436
437
374
375
376
377
379
381
380
382
385
383
384
395
394
393
387
386
388
389
390
392
391
360
361
362
363
364
365
366
367
368
378
369
370
371
372
373
641
640
639
638
637
636
635
634
633
992
625
626
628
627
612
613
614
615
616
732
731
730
736
737
739
740
741
742
743
745
744
738
735
734
733
749
750
748
746
747
755
754
753
752
751
790
789
791
792
794
793
788
756
757
758
759
1000
763
764
765
766
768
769
767
962
961
993
953
954
956
955
940
941
942
943
944
945
946
947
948
949
952
951
950
977
978
979
976
975
974
973
967
966
965
964
963
702
703
704
699
700
701
968
969
972
981
980
982
971
970
987
986
985
983
984
990
989
988
684
683
685
686
682
676
675
674
677
678
679
680
681
687
688
689
690
691
692
693
694
695
696
706
697
698
705
707
709
708
710
713
711
712
723
722
721
715
714
716
717
718
720
719
673
672
671
669
670
666
665
664
663
667
668
726
725
724
728
729
727
620
619
618
617
-1
EOF